Minimize
	r
Subject to
DemandVolume11: x111 + x121 + x131 + x141 + x151 + x161 + x171 = 2
DemandVolume12: x112 + x122 + x132 + x142 + x152 + x162 + x172 = 3
DemandVolume13: x113 + x123 + x133 + x143 + x153 + x163 + x173 = 4
DemandVolume14: x114 + x124 + x134 + x144 + x154 + x164 + x174 = 5
DemandVolume15: x115 + x125 + x135 + x145 + x155 + x165 + x175 = 6
DemandVolume16: x116 + x126 + x136 + x146 + x156 + x166 + x176 = 7
DemandVolume17: x117 + x127 + x137 + x147 + x157 + x167 + x177 = 8
DemandVolume21: x211 + x221 + x231 + x241 + x251 + x261 + x271 = 3
DemandVolume22: x212 + x222 + x232 + x242 + x252 + x262 + x272 = 4
DemandVolume23: x213 + x223 + x233 + x243 + x253 + x263 + x273 = 5
DemandVolume24: x214 + x224 + x234 + x244 + x254 + x264 + x274 = 6
DemandVolume25: x215 + x225 + x235 + x245 + x255 + x265 + x275 = 7
DemandVolume26: x216 + x226 + x236 + x246 + x256 + x266 + x276 = 8
DemandVolume27: x217 + x227 + x237 + x247 + x257 + x267 + x277 = 9
DemandVolume31: x311 + x321 + x331 + x341 + x351 + x361 + x371 = 4
DemandVolume32: x312 + x322 + x332 + x342 + x352 + x362 + x372 = 5
DemandVolume33: x313 + x323 + x333 + x343 + x353 + x363 + x373 = 6
DemandVolume34: x314 + x324 + x334 + x344 + x354 + x364 + x374 = 7
DemandVolume35: x315 + x325 + x335 + x345 + x355 + x365 + x375 = 8
DemandVolume36: x316 + x326 + x336 + x346 + x356 + x366 + x376 = 9
DemandVolume37: x317 + x327 + x337 + x347 + x357 + x367 + x377 = 10
DemandVolume41: x411 + x421 + x431 + x441 + x451 + x461 + x471 = 5
DemandVolume42: x412 + x422 + x432 + x442 + x452 + x462 + x472 = 6
DemandVolume43: x413 + x423 + x433 + x443 + x453 + x463 + x473 = 7
DemandVolume44: x414 + x424 + x434 + x444 + x454 + x464 + x474 = 8
DemandVolume45: x415 + x425 + x435 + x445 + x455 + x465 + x475 = 9
DemandVolume46: x416 + x426 + x436 + x446 + x456 + x466 + x476 = 10
DemandVolume47: x417 + x427 + x437 + x447 + x457 + x467 + x477 = 11
DemandVolume51: x511 + x521 + x531 + x541 + x551 + x561 + x571 = 6
DemandVolume52: x512 + x522 + x532 + x542 + x552 + x562 + x572 = 7
DemandVolume53: x513 + x523 + x533 + x543 + x553 + x563 + x573 = 8
DemandVolume54: x514 + x524 + x534 + x544 + x554 + x564 + x574 = 9
DemandVolume55: x515 + x525 + x535 + x545 + x555 + x565 + x575 = 10
DemandVolume56: x516 + x526 + x536 + x546 + x556 + x566 + x576 = 11
DemandVolume57: x517 + x527 + x537 + x547 + x557 + x567 + x577 = 12
DemandVolume61: x611 + x621 + x631 + x641 + x651 + x661 + x671 = 7
DemandVolume62: x612 + x622 + x632 + x642 + x652 + x662 + x672 = 8
DemandVolume63: x613 + x623 + x633 + x643 + x653 + x663 + x673 = 9
DemandVolume64: x614 + x624 + x634 + x644 + x654 + x664 + x674 = 10
DemandVolume65: x615 + x625 + x635 + x645 + x655 + x665 + x675 = 11
DemandVolume66: x616 + x626 + x636 + x646 + x656 + x666 + x676 = 12
DemandVolume67: x617 + x627 + x637 + x647 + x657 + x667 + x677 = 13
DemandVolume71: x711 + x721 + x731 + x741 + x751 + x761 + x771 = 8
DemandVolume72: x712 + x722 + x732 + x742 + x752 + x762 + x772 = 9
DemandVolume73: x713 + x723 + x733 + x743 + x753 + x763 + x773 = 10
DemandVolume74: x714 + x724 + x734 + x744 + x754 + x764 + x774 = 11
DemandVolume75: x715 + x725 + x735 + x745 + x755 + x765 + x775 = 12
DemandVolume76: x716 + x726 + x736 + x746 + x756 + x766 + x776 = 13
DemandVolume77: x717 + x727 + x737 + x747 + x757 + x767 + x777 = 14
DemandFlow111: 3 x111 - 2 u111 = 0
DemandFlow121: 3 x121 - 2 u121 = 0
DemandFlow131: 3 x131 - 2 u131 = 0
DemandFlow141: 3 x141 - 2 u141 = 0
DemandFlow151: 3 x151 - 2 u151 = 0
DemandFlow161: 3 x161 - 2 u161 = 0
DemandFlow171: 3 x171 - 2 u171 = 0
DemandFlow112: 3 x112 - 3 u112 = 0
DemandFlow122: 3 x122 - 3 u122 = 0
DemandFlow132: 3 x132 - 3 u132 = 0
DemandFlow142: 3 x142 - 3 u142 = 0
DemandFlow152: 3 x152 - 3 u152 = 0
DemandFlow162: 3 x162 - 3 u162 = 0
DemandFlow172: 3 x172 - 3 u172 = 0
DemandFlow113: 3 x113 - 4 u113 = 0
DemandFlow123: 3 x123 - 4 u123 = 0
DemandFlow133: 3 x133 - 4 u133 = 0
DemandFlow143: 3 x143 - 4 u143 = 0
DemandFlow153: 3 x153 - 4 u153 = 0
DemandFlow163: 3 x163 - 4 u163 = 0
DemandFlow173: 3 x173 - 4 u173 = 0
DemandFlow114: 3 x114 - 5 u114 = 0
DemandFlow124: 3 x124 - 5 u124 = 0
DemandFlow134: 3 x134 - 5 u134 = 0
DemandFlow144: 3 x144 - 5 u144 = 0
DemandFlow154: 3 x154 - 5 u154 = 0
DemandFlow164: 3 x164 - 5 u164 = 0
DemandFlow174: 3 x174 - 5 u174 = 0
DemandFlow115: 3 x115 - 6 u115 = 0
DemandFlow125: 3 x125 - 6 u125 = 0
DemandFlow135: 3 x135 - 6 u135 = 0
DemandFlow145: 3 x145 - 6 u145 = 0
DemandFlow155: 3 x155 - 6 u155 = 0
DemandFlow165: 3 x165 - 6 u165 = 0
DemandFlow175: 3 x175 - 6 u175 = 0
DemandFlow116: 3 x116 - 7 u116 = 0
DemandFlow126: 3 x126 - 7 u126 = 0
DemandFlow136: 3 x136 - 7 u136 = 0
DemandFlow146: 3 x146 - 7 u146 = 0
DemandFlow156: 3 x156 - 7 u156 = 0
DemandFlow166: 3 x166 - 7 u166 = 0
DemandFlow176: 3 x176 - 7 u176 = 0
DemandFlow117: 3 x117 - 8 u117 = 0
DemandFlow127: 3 x127 - 8 u127 = 0
DemandFlow137: 3 x137 - 8 u137 = 0
DemandFlow147: 3 x147 - 8 u147 = 0
DemandFlow157: 3 x157 - 8 u157 = 0
DemandFlow167: 3 x167 - 8 u167 = 0
DemandFlow177: 3 x177 - 8 u177 = 0
DemandFlow211: 3 x211 - 3 u211 = 0
DemandFlow221: 3 x221 - 3 u221 = 0
DemandFlow231: 3 x231 - 3 u231 = 0
DemandFlow241: 3 x241 - 3 u241 = 0
DemandFlow251: 3 x251 - 3 u251 = 0
DemandFlow261: 3 x261 - 3 u261 = 0
DemandFlow271: 3 x271 - 3 u271 = 0
DemandFlow212: 3 x212 - 4 u212 = 0
DemandFlow222: 3 x222 - 4 u222 = 0
DemandFlow232: 3 x232 - 4 u232 = 0
DemandFlow242: 3 x242 - 4 u242 = 0
DemandFlow252: 3 x252 - 4 u252 = 0
DemandFlow262: 3 x262 - 4 u262 = 0
DemandFlow272: 3 x272 - 4 u272 = 0
DemandFlow213: 3 x213 - 5 u213 = 0
DemandFlow223: 3 x223 - 5 u223 = 0
DemandFlow233: 3 x233 - 5 u233 = 0
DemandFlow243: 3 x243 - 5 u243 = 0
DemandFlow253: 3 x253 - 5 u253 = 0
DemandFlow263: 3 x263 - 5 u263 = 0
DemandFlow273: 3 x273 - 5 u273 = 0
DemandFlow214: 3 x214 - 6 u214 = 0
DemandFlow224: 3 x224 - 6 u224 = 0
DemandFlow234: 3 x234 - 6 u234 = 0
DemandFlow244: 3 x244 - 6 u244 = 0
DemandFlow254: 3 x254 - 6 u254 = 0
DemandFlow264: 3 x264 - 6 u264 = 0
DemandFlow274: 3 x274 - 6 u274 = 0
DemandFlow215: 3 x215 - 7 u215 = 0
DemandFlow225: 3 x225 - 7 u225 = 0
DemandFlow235: 3 x235 - 7 u235 = 0
DemandFlow245: 3 x245 - 7 u245 = 0
DemandFlow255: 3 x255 - 7 u255 = 0
DemandFlow265: 3 x265 - 7 u265 = 0
DemandFlow275: 3 x275 - 7 u275 = 0
DemandFlow216: 3 x216 - 8 u216 = 0
DemandFlow226: 3 x226 - 8 u226 = 0
DemandFlow236: 3 x236 - 8 u236 = 0
DemandFlow246: 3 x246 - 8 u246 = 0
DemandFlow256: 3 x256 - 8 u256 = 0
DemandFlow266: 3 x266 - 8 u266 = 0
DemandFlow276: 3 x276 - 8 u276 = 0
DemandFlow217: 3 x217 - 9 u217 = 0
DemandFlow227: 3 x227 - 9 u227 = 0
DemandFlow237: 3 x237 - 9 u237 = 0
DemandFlow247: 3 x247 - 9 u247 = 0
DemandFlow257: 3 x257 - 9 u257 = 0
DemandFlow267: 3 x267 - 9 u267 = 0
DemandFlow277: 3 x277 - 9 u277 = 0
DemandFlow311: 3 x311 - 4 u311 = 0
DemandFlow321: 3 x321 - 4 u321 = 0
DemandFlow331: 3 x331 - 4 u331 = 0
DemandFlow341: 3 x341 - 4 u341 = 0
DemandFlow351: 3 x351 - 4 u351 = 0
DemandFlow361: 3 x361 - 4 u361 = 0
DemandFlow371: 3 x371 - 4 u371 = 0
DemandFlow312: 3 x312 - 5 u312 = 0
DemandFlow322: 3 x322 - 5 u322 = 0
DemandFlow332: 3 x332 - 5 u332 = 0
DemandFlow342: 3 x342 - 5 u342 = 0
DemandFlow352: 3 x352 - 5 u352 = 0
DemandFlow362: 3 x362 - 5 u362 = 0
DemandFlow372: 3 x372 - 5 u372 = 0
DemandFlow313: 3 x313 - 6 u313 = 0
DemandFlow323: 3 x323 - 6 u323 = 0
DemandFlow333: 3 x333 - 6 u333 = 0
DemandFlow343: 3 x343 - 6 u343 = 0
DemandFlow353: 3 x353 - 6 u353 = 0
DemandFlow363: 3 x363 - 6 u363 = 0
DemandFlow373: 3 x373 - 6 u373 = 0
DemandFlow314: 3 x314 - 7 u314 = 0
DemandFlow324: 3 x324 - 7 u324 = 0
DemandFlow334: 3 x334 - 7 u334 = 0
DemandFlow344: 3 x344 - 7 u344 = 0
DemandFlow354: 3 x354 - 7 u354 = 0
DemandFlow364: 3 x364 - 7 u364 = 0
DemandFlow374: 3 x374 - 7 u374 = 0
DemandFlow315: 3 x315 - 8 u315 = 0
DemandFlow325: 3 x325 - 8 u325 = 0
DemandFlow335: 3 x335 - 8 u335 = 0
DemandFlow345: 3 x345 - 8 u345 = 0
DemandFlow355: 3 x355 - 8 u355 = 0
DemandFlow365: 3 x365 - 8 u365 = 0
DemandFlow375: 3 x375 - 8 u375 = 0
DemandFlow316: 3 x316 - 9 u316 = 0
DemandFlow326: 3 x326 - 9 u326 = 0
DemandFlow336: 3 x336 - 9 u336 = 0
DemandFlow346: 3 x346 - 9 u346 = 0
DemandFlow356: 3 x356 - 9 u356 = 0
DemandFlow366: 3 x366 - 9 u366 = 0
DemandFlow376: 3 x376 - 9 u376 = 0
DemandFlow317: 3 x317 - 10 u317 = 0
DemandFlow327: 3 x327 - 10 u327 = 0
DemandFlow337: 3 x337 - 10 u337 = 0
DemandFlow347: 3 x347 - 10 u347 = 0
DemandFlow357: 3 x357 - 10 u357 = 0
DemandFlow367: 3 x367 - 10 u367 = 0
DemandFlow377: 3 x377 - 10 u377 = 0
DemandFlow411: 3 x411 - 5 u411 = 0
DemandFlow421: 3 x421 - 5 u421 = 0
DemandFlow431: 3 x431 - 5 u431 = 0
DemandFlow441: 3 x441 - 5 u441 = 0
DemandFlow451: 3 x451 - 5 u451 = 0
DemandFlow461: 3 x461 - 5 u461 = 0
DemandFlow471: 3 x471 - 5 u471 = 0
DemandFlow412: 3 x412 - 6 u412 = 0
DemandFlow422: 3 x422 - 6 u422 = 0
DemandFlow432: 3 x432 - 6 u432 = 0
DemandFlow442: 3 x442 - 6 u442 = 0
DemandFlow452: 3 x452 - 6 u452 = 0
DemandFlow462: 3 x462 - 6 u462 = 0
DemandFlow472: 3 x472 - 6 u472 = 0
DemandFlow413: 3 x413 - 7 u413 = 0
DemandFlow423: 3 x423 - 7 u423 = 0
DemandFlow433: 3 x433 - 7 u433 = 0
DemandFlow443: 3 x443 - 7 u443 = 0
DemandFlow453: 3 x453 - 7 u453 = 0
DemandFlow463: 3 x463 - 7 u463 = 0
DemandFlow473: 3 x473 - 7 u473 = 0
DemandFlow414: 3 x414 - 8 u414 = 0
DemandFlow424: 3 x424 - 8 u424 = 0
DemandFlow434: 3 x434 - 8 u434 = 0
DemandFlow444: 3 x444 - 8 u444 = 0
DemandFlow454: 3 x454 - 8 u454 = 0
DemandFlow464: 3 x464 - 8 u464 = 0
DemandFlow474: 3 x474 - 8 u474 = 0
DemandFlow415: 3 x415 - 9 u415 = 0
DemandFlow425: 3 x425 - 9 u425 = 0
DemandFlow435: 3 x435 - 9 u435 = 0
DemandFlow445: 3 x445 - 9 u445 = 0
DemandFlow455: 3 x455 - 9 u455 = 0
DemandFlow465: 3 x465 - 9 u465 = 0
DemandFlow475: 3 x475 - 9 u475 = 0
DemandFlow416: 3 x416 - 10 u416 = 0
DemandFlow426: 3 x426 - 10 u426 = 0
DemandFlow436: 3 x436 - 10 u436 = 0
DemandFlow446: 3 x446 - 10 u446 = 0
DemandFlow456: 3 x456 - 10 u456 = 0
DemandFlow466: 3 x466 - 10 u466 = 0
DemandFlow476: 3 x476 - 10 u476 = 0
DemandFlow417: 3 x417 - 11 u417 = 0
DemandFlow427: 3 x427 - 11 u427 = 0
DemandFlow437: 3 x437 - 11 u437 = 0
DemandFlow447: 3 x447 - 11 u447 = 0
DemandFlow457: 3 x457 - 11 u457 = 0
DemandFlow467: 3 x467 - 11 u467 = 0
DemandFlow477: 3 x477 - 11 u477 = 0
DemandFlow511: 3 x511 - 6 u511 = 0
DemandFlow521: 3 x521 - 6 u521 = 0
DemandFlow531: 3 x531 - 6 u531 = 0
DemandFlow541: 3 x541 - 6 u541 = 0
DemandFlow551: 3 x551 - 6 u551 = 0
DemandFlow561: 3 x561 - 6 u561 = 0
DemandFlow571: 3 x571 - 6 u571 = 0
DemandFlow512: 3 x512 - 7 u512 = 0
DemandFlow522: 3 x522 - 7 u522 = 0
DemandFlow532: 3 x532 - 7 u532 = 0
DemandFlow542: 3 x542 - 7 u542 = 0
DemandFlow552: 3 x552 - 7 u552 = 0
DemandFlow562: 3 x562 - 7 u562 = 0
DemandFlow572: 3 x572 - 7 u572 = 0
DemandFlow513: 3 x513 - 8 u513 = 0
DemandFlow523: 3 x523 - 8 u523 = 0
DemandFlow533: 3 x533 - 8 u533 = 0
DemandFlow543: 3 x543 - 8 u543 = 0
DemandFlow553: 3 x553 - 8 u553 = 0
DemandFlow563: 3 x563 - 8 u563 = 0
DemandFlow573: 3 x573 - 8 u573 = 0
DemandFlow514: 3 x514 - 9 u514 = 0
DemandFlow524: 3 x524 - 9 u524 = 0
DemandFlow534: 3 x534 - 9 u534 = 0
DemandFlow544: 3 x544 - 9 u544 = 0
DemandFlow554: 3 x554 - 9 u554 = 0
DemandFlow564: 3 x564 - 9 u564 = 0
DemandFlow574: 3 x574 - 9 u574 = 0
DemandFlow515: 3 x515 - 10 u515 = 0
DemandFlow525: 3 x525 - 10 u525 = 0
DemandFlow535: 3 x535 - 10 u535 = 0
DemandFlow545: 3 x545 - 10 u545 = 0
DemandFlow555: 3 x555 - 10 u555 = 0
DemandFlow565: 3 x565 - 10 u565 = 0
DemandFlow575: 3 x575 - 10 u575 = 0
DemandFlow516: 3 x516 - 11 u516 = 0
DemandFlow526: 3 x526 - 11 u526 = 0
DemandFlow536: 3 x536 - 11 u536 = 0
DemandFlow546: 3 x546 - 11 u546 = 0
DemandFlow556: 3 x556 - 11 u556 = 0
DemandFlow566: 3 x566 - 11 u566 = 0
DemandFlow576: 3 x576 - 11 u576 = 0
DemandFlow517: 3 x517 - 12 u517 = 0
DemandFlow527: 3 x527 - 12 u527 = 0
DemandFlow537: 3 x537 - 12 u537 = 0
DemandFlow547: 3 x547 - 12 u547 = 0
DemandFlow557: 3 x557 - 12 u557 = 0
DemandFlow567: 3 x567 - 12 u567 = 0
DemandFlow577: 3 x577 - 12 u577 = 0
DemandFlow611: 3 x611 - 7 u611 = 0
DemandFlow621: 3 x621 - 7 u621 = 0
DemandFlow631: 3 x631 - 7 u631 = 0
DemandFlow641: 3 x641 - 7 u641 = 0
DemandFlow651: 3 x651 - 7 u651 = 0
DemandFlow661: 3 x661 - 7 u661 = 0
DemandFlow671: 3 x671 - 7 u671 = 0
DemandFlow612: 3 x612 - 8 u612 = 0
DemandFlow622: 3 x622 - 8 u622 = 0
DemandFlow632: 3 x632 - 8 u632 = 0
DemandFlow642: 3 x642 - 8 u642 = 0
DemandFlow652: 3 x652 - 8 u652 = 0
DemandFlow662: 3 x662 - 8 u662 = 0
DemandFlow672: 3 x672 - 8 u672 = 0
DemandFlow613: 3 x613 - 9 u613 = 0
DemandFlow623: 3 x623 - 9 u623 = 0
DemandFlow633: 3 x633 - 9 u633 = 0
DemandFlow643: 3 x643 - 9 u643 = 0
DemandFlow653: 3 x653 - 9 u653 = 0
DemandFlow663: 3 x663 - 9 u663 = 0
DemandFlow673: 3 x673 - 9 u673 = 0
DemandFlow614: 3 x614 - 10 u614 = 0
DemandFlow624: 3 x624 - 10 u624 = 0
DemandFlow634: 3 x634 - 10 u634 = 0
DemandFlow644: 3 x644 - 10 u644 = 0
DemandFlow654: 3 x654 - 10 u654 = 0
DemandFlow664: 3 x664 - 10 u664 = 0
DemandFlow674: 3 x674 - 10 u674 = 0
DemandFlow615: 3 x615 - 11 u615 = 0
DemandFlow625: 3 x625 - 11 u625 = 0
DemandFlow635: 3 x635 - 11 u635 = 0
DemandFlow645: 3 x645 - 11 u645 = 0
DemandFlow655: 3 x655 - 11 u655 = 0
DemandFlow665: 3 x665 - 11 u665 = 0
DemandFlow675: 3 x675 - 11 u675 = 0
DemandFlow616: 3 x616 - 12 u616 = 0
DemandFlow626: 3 x626 - 12 u626 = 0
DemandFlow636: 3 x636 - 12 u636 = 0
DemandFlow646: 3 x646 - 12 u646 = 0
DemandFlow656: 3 x656 - 12 u656 = 0
DemandFlow666: 3 x666 - 12 u666 = 0
DemandFlow676: 3 x676 - 12 u676 = 0
DemandFlow617: 3 x617 - 13 u617 = 0
DemandFlow627: 3 x627 - 13 u627 = 0
DemandFlow637: 3 x637 - 13 u637 = 0
DemandFlow647: 3 x647 - 13 u647 = 0
DemandFlow657: 3 x657 - 13 u657 = 0
DemandFlow667: 3 x667 - 13 u667 = 0
DemandFlow677: 3 x677 - 13 u677 = 0
DemandFlow711: 3 x711 - 8 u711 = 0
DemandFlow721: 3 x721 - 8 u721 = 0
DemandFlow731: 3 x731 - 8 u731 = 0
DemandFlow741: 3 x741 - 8 u741 = 0
DemandFlow751: 3 x751 - 8 u751 = 0
DemandFlow761: 3 x761 - 8 u761 = 0
DemandFlow771: 3 x771 - 8 u771 = 0
DemandFlow712: 3 x712 - 9 u712 = 0
DemandFlow722: 3 x722 - 9 u722 = 0
DemandFlow732: 3 x732 - 9 u732 = 0
DemandFlow742: 3 x742 - 9 u742 = 0
DemandFlow752: 3 x752 - 9 u752 = 0
DemandFlow762: 3 x762 - 9 u762 = 0
DemandFlow772: 3 x772 - 9 u772 = 0
DemandFlow713: 3 x713 - 10 u713 = 0
DemandFlow723: 3 x723 - 10 u723 = 0
DemandFlow733: 3 x733 - 10 u733 = 0
DemandFlow743: 3 x743 - 10 u743 = 0
DemandFlow753: 3 x753 - 10 u753 = 0
DemandFlow763: 3 x763 - 10 u763 = 0
DemandFlow773: 3 x773 - 10 u773 = 0
DemandFlow714: 3 x714 - 11 u714 = 0
DemandFlow724: 3 x724 - 11 u724 = 0
DemandFlow734: 3 x734 - 11 u734 = 0
DemandFlow744: 3 x744 - 11 u744 = 0
DemandFlow754: 3 x754 - 11 u754 = 0
DemandFlow764: 3 x764 - 11 u764 = 0
DemandFlow774: 3 x774 - 11 u774 = 0
DemandFlow715: 3 x715 - 12 u715 = 0
DemandFlow725: 3 x725 - 12 u725 = 0
DemandFlow735: 3 x735 - 12 u735 = 0
DemandFlow745: 3 x745 - 12 u745 = 0
DemandFlow755: 3 x755 - 12 u755 = 0
DemandFlow765: 3 x765 - 12 u765 = 0
DemandFlow775: 3 x775 - 12 u775 = 0
DemandFlow716: 3 x716 - 13 u716 = 0
DemandFlow726: 3 x726 - 13 u726 = 0
DemandFlow736: 3 x736 - 13 u736 = 0
DemandFlow746: 3 x746 - 13 u746 = 0
DemandFlow756: 3 x756 - 13 u756 = 0
DemandFlow766: 3 x766 - 13 u766 = 0
DemandFlow776: 3 x776 - 13 u776 = 0
DemandFlow717: 3 x717 - 14 u717 = 0
DemandFlow727: 3 x727 - 14 u727 = 0
DemandFlow737: 3 x737 - 14 u737 = 0
DemandFlow747: 3 x747 - 14 u747 = 0
DemandFlow757: 3 x757 - 14 u757 = 0
DemandFlow767: 3 x767 - 14 u767 = 0
DemandFlow777: 3 x777 - 14 u777 = 0
SrcConstraints11: x111 + x112 + x113 + x114 + x115 + x116 + x117 - st11 = 0
SrcConstraints12: x121 + x122 + x123 + x124 + x125 + x126 + x127 - st12 = 0
SrcConstraints13: x131 + x132 + x133 + x134 + x135 + x136 + x137 - st13 = 0
SrcConstraints14: x141 + x142 + x143 + x144 + x145 + x146 + x147 - st14 = 0
SrcConstraints15: x151 + x152 + x153 + x154 + x155 + x156 + x157 - st15 = 0
SrcConstraints16: x161 + x162 + x163 + x164 + x165 + x166 + x167 - st16 = 0
SrcConstraints17: x171 + x172 + x173 + x174 + x175 + x176 + x177 - st17 = 0
SrcConstraints21: x211 + x212 + x213 + x214 + x215 + x216 + x217 - st21 = 0
SrcConstraints22: x221 + x222 + x223 + x224 + x225 + x226 + x227 - st22 = 0
SrcConstraints23: x231 + x232 + x233 + x234 + x235 + x236 + x237 - st23 = 0
SrcConstraints24: x241 + x242 + x243 + x244 + x245 + x246 + x247 - st24 = 0
SrcConstraints25: x251 + x252 + x253 + x254 + x255 + x256 + x257 - st25 = 0
SrcConstraints26: x261 + x262 + x263 + x264 + x265 + x266 + x267 - st26 = 0
SrcConstraints27: x271 + x272 + x273 + x274 + x275 + x276 + x277 - st27 = 0
SrcConstraints31: x311 + x312 + x313 + x314 + x315 + x316 + x317 - st31 = 0
SrcConstraints32: x321 + x322 + x323 + x324 + x325 + x326 + x327 - st32 = 0
SrcConstraints33: x331 + x332 + x333 + x334 + x335 + x336 + x337 - st33 = 0
SrcConstraints34: x341 + x342 + x343 + x344 + x345 + x346 + x347 - st34 = 0
SrcConstraints35: x351 + x352 + x353 + x354 + x355 + x356 + x357 - st35 = 0
SrcConstraints36: x361 + x362 + x363 + x364 + x365 + x366 + x367 - st36 = 0
SrcConstraints37: x371 + x372 + x373 + x374 + x375 + x376 + x377 - st37 = 0
SrcConstraints41: x411 + x412 + x413 + x414 + x415 + x416 + x417 - st41 = 0
SrcConstraints42: x421 + x422 + x423 + x424 + x425 + x426 + x427 - st42 = 0
SrcConstraints43: x431 + x432 + x433 + x434 + x435 + x436 + x437 - st43 = 0
SrcConstraints44: x441 + x442 + x443 + x444 + x445 + x446 + x447 - st44 = 0
SrcConstraints45: x451 + x452 + x453 + x454 + x455 + x456 + x457 - st45 = 0
SrcConstraints46: x461 + x462 + x463 + x464 + x465 + x466 + x467 - st46 = 0
SrcConstraints47: x471 + x472 + x473 + x474 + x475 + x476 + x477 - st47 = 0
SrcConstraints51: x511 + x512 + x513 + x514 + x515 + x516 + x517 - st51 = 0
SrcConstraints52: x521 + x522 + x523 + x524 + x525 + x526 + x527 - st52 = 0
SrcConstraints53: x531 + x532 + x533 + x534 + x535 + x536 + x537 - st53 = 0
SrcConstraints54: x541 + x542 + x543 + x544 + x545 + x546 + x547 - st54 = 0
SrcConstraints55: x551 + x552 + x553 + x554 + x555 + x556 + x557 - st55 = 0
SrcConstraints56: x561 + x562 + x563 + x564 + x565 + x566 + x567 - st56 = 0
SrcConstraints57: x571 + x572 + x573 + x574 + x575 + x576 + x577 - st57 = 0
SrcConstraints61: x611 + x612 + x613 + x614 + x615 + x616 + x617 - st61 = 0
SrcConstraints62: x621 + x622 + x623 + x624 + x625 + x626 + x627 - st62 = 0
SrcConstraints63: x631 + x632 + x633 + x634 + x635 + x636 + x637 - st63 = 0
SrcConstraints64: x641 + x642 + x643 + x644 + x645 + x646 + x647 - st64 = 0
SrcConstraints65: x651 + x652 + x653 + x654 + x655 + x656 + x657 - st65 = 0
SrcConstraints66: x661 + x662 + x663 + x664 + x665 + x666 + x667 - st66 = 0
SrcConstraints67: x671 + x672 + x673 + x674 + x675 + x676 + x677 - st67 = 0
SrcConstraints71: x711 + x712 + x713 + x714 + x715 + x716 + x717 - st71 = 0
SrcConstraints72: x721 + x722 + x723 + x724 + x725 + x726 + x727 - st72 = 0
SrcConstraints73: x731 + x732 + x733 + x734 + x735 + x736 + x737 - st73 = 0
SrcConstraints74: x741 + x742 + x743 + x744 + x745 + x746 + x747 - st74 = 0
SrcConstraints75: x751 + x752 + x753 + x754 + x755 + x756 + x757 - st75 = 0
SrcConstraints76: x761 + x762 + x763 + x764 + x765 + x766 + x767 - st76 = 0
SrcConstraints77: x771 + x772 + x773 + x774 + x775 + x776 + x777 - st77 = 0
DstConstraint11: x111 + x211 + x311 + x411 + x511 + x611 + x711 - td11 = 0
DstConstraint12: x112 + x212 + x312 + x412 + x512 + x612 + x712 - td12 = 0
DstConstraint13: x113 + x213 + x313 + x413 + x513 + x613 + x713 - td13 = 0
DstConstraint14: x114 + x214 + x314 + x414 + x514 + x614 + x714 - td14 = 0
DstConstraint15: x115 + x215 + x315 + x415 + x515 + x615 + x715 - td15 = 0
DstConstraint16: x116 + x216 + x316 + x416 + x516 + x616 + x716 - td16 = 0
DstConstraint17: x117 + x217 + x317 + x417 + x517 + x617 + x717 - td17 = 0
DstConstraint21: x121 + x221 + x321 + x421 + x521 + x621 + x721 - td21 = 0
DstConstraint22: x122 + x222 + x322 + x422 + x522 + x622 + x722 - td22 = 0
DstConstraint23: x123 + x223 + x323 + x423 + x523 + x623 + x723 - td23 = 0
DstConstraint24: x124 + x224 + x324 + x424 + x524 + x624 + x724 - td24 = 0
DstConstraint25: x125 + x225 + x325 + x425 + x525 + x625 + x725 - td25 = 0
DstConstraint26: x126 + x226 + x326 + x426 + x526 + x626 + x726 - td26 = 0
DstConstraint27: x127 + x227 + x327 + x427 + x527 + x627 + x727 - td27 = 0
DstConstraint31: x131 + x231 + x331 + x431 + x531 + x631 + x731 - td31 = 0
DstConstraint32: x132 + x232 + x332 + x432 + x532 + x632 + x732 - td32 = 0
DstConstraint33: x133 + x233 + x333 + x433 + x533 + x633 + x733 - td33 = 0
DstConstraint34: x134 + x234 + x334 + x434 + x534 + x634 + x734 - td34 = 0
DstConstraint35: x135 + x235 + x335 + x435 + x535 + x635 + x735 - td35 = 0
DstConstraint36: x136 + x236 + x336 + x436 + x536 + x636 + x736 - td36 = 0
DstConstraint37: x137 + x237 + x337 + x437 + x537 + x637 + x737 - td37 = 0
DstConstraint41: x141 + x241 + x341 + x441 + x541 + x641 + x741 - td41 = 0
DstConstraint42: x142 + x242 + x342 + x442 + x542 + x642 + x742 - td42 = 0
DstConstraint43: x143 + x243 + x343 + x443 + x543 + x643 + x743 - td43 = 0
DstConstraint44: x144 + x244 + x344 + x444 + x544 + x644 + x744 - td44 = 0
DstConstraint45: x145 + x245 + x345 + x445 + x545 + x645 + x745 - td45 = 0
DstConstraint46: x146 + x246 + x346 + x446 + x546 + x646 + x746 - td46 = 0
DstConstraint47: x147 + x247 + x347 + x447 + x547 + x647 + x747 - td47 = 0
DstConstraint51: x151 + x251 + x351 + x451 + x551 + x651 + x751 - td51 = 0
DstConstraint52: x152 + x252 + x352 + x452 + x552 + x652 + x752 - td52 = 0
DstConstraint53: x153 + x253 + x353 + x453 + x553 + x653 + x753 - td53 = 0
DstConstraint54: x154 + x254 + x354 + x454 + x554 + x654 + x754 - td54 = 0
DstConstraint55: x155 + x255 + x355 + x455 + x555 + x655 + x755 - td55 = 0
DstConstraint56: x156 + x256 + x356 + x456 + x556 + x656 + x756 - td56 = 0
DstConstraint57: x157 + x257 + x357 + x457 + x557 + x657 + x757 - td57 = 0
DstConstraint61: x161 + x261 + x361 + x461 + x561 + x661 + x761 - td61 = 0
DstConstraint62: x162 + x262 + x362 + x462 + x562 + x662 + x762 - td62 = 0
DstConstraint63: x163 + x263 + x363 + x463 + x563 + x663 + x763 - td63 = 0
DstConstraint64: x164 + x264 + x364 + x464 + x564 + x664 + x764 - td64 = 0
DstConstraint65: x165 + x265 + x365 + x465 + x565 + x665 + x765 - td65 = 0
DstConstraint66: x166 + x266 + x366 + x466 + x566 + x666 + x766 - td66 = 0
DstConstraint67: x167 + x267 + x367 + x467 + x567 + x667 + x767 - td67 = 0
DstConstraint71: x171 + x271 + x371 + x471 + x571 + x671 + x771 - td71 = 0
DstConstraint72: x172 + x272 + x372 + x472 + x572 + x672 + x772 - td72 = 0
DstConstraint73: x173 + x273 + x373 + x473 + x573 + x673 + x773 - td73 = 0
DstConstraint74: x174 + x274 + x374 + x474 + x574 + x674 + x774 - td74 = 0
DstConstraint75: x175 + x275 + x375 + x475 + x575 + x675 + x775 - td75 = 0
DstConstraint76: x176 + x276 + x376 + x476 + x576 + x676 + x776 - td76 = 0
DstConstraint77: x177 + x277 + x377 + x477 + x577 + x677 + x777 - td77 = 0
TransConstraint1: x111 + x112 + x113 + x114 + x115 + x116 + x117 + x211 + x212 + x213 + x214 + x215 + x216 + x217 + x311 + x312 + x313 + x314 + x315 + x316 + x317 + x411 + x412 + x413 + x414 + x415 + x416 + x417 + x511 + x512 + x513 + x514 + x515 + x516 + x517 + x611 + x612 + x613 + x614 + x615 + x616 + x617 + x711 + x712 + x713 + x714 + x715 + x716 + x717 - r <= 0
TransConstraint2: x121 + x122 + x123 + x124 + x125 + x126 + x127 + x221 + x222 + x223 + x224 + x225 + x226 + x227 + x321 + x322 + x323 + x324 + x325 + x326 + x327 + x421 + x422 + x423 + x424 + x425 + x426 + x427 + x521 + x522 + x523 + x524 + x525 + x526 + x527 + x621 + x622 + x623 + x624 + x625 + x626 + x627 + x721 + x722 + x723 + x724 + x725 + x726 + x727 - r <= 0
TransConstraint3: x131 + x132 + x133 + x134 + x135 + x136 + x137 + x231 + x232 + x233 + x234 + x235 + x236 + x237 + x331 + x332 + x333 + x334 + x335 + x336 + x337 + x431 + x432 + x433 + x434 + x435 + x436 + x437 + x531 + x532 + x533 + x534 + x535 + x536 + x537 + x631 + x632 + x633 + x634 + x635 + x636 + x637 + x731 + x732 + x733 + x734 + x735 + x736 + x737 - r <= 0
TransConstraint4: x141 + x142 + x143 + x144 + x145 + x146 + x147 + x241 + x242 + x243 + x244 + x245 + x246 + x247 + x341 + x342 + x343 + x344 + x345 + x346 + x347 + x441 + x442 + x443 + x444 + x445 + x446 + x447 + x541 + x542 + x543 + x544 + x545 + x546 + x547 + x641 + x642 + x643 + x644 + x645 + x646 + x647 + x741 + x742 + x743 + x744 + x745 + x746 + x747 - r <= 0
TransConstraint5: x151 + x152 + x153 + x154 + x155 + x156 + x157 + x251 + x252 + x253 + x254 + x255 + x256 + x257 + x351 + x352 + x353 + x354 + x355 + x356 + x357 + x451 + x452 + x453 + x454 + x455 + x456 + x457 + x551 + x552 + x553 + x554 + x555 + x556 + x557 + x651 + x652 + x653 + x654 + x655 + x656 + x657 + x751 + x752 + x753 + x754 + x755 + x756 + x757 - r <= 0
TransConstraint6: x161 + x162 + x163 + x164 + x165 + x166 + x167 + x261 + x262 + x263 + x264 + x265 + x266 + x267 + x361 + x362 + x363 + x364 + x365 + x366 + x367 + x461 + x462 + x463 + x464 + x465 + x466 + x467 + x561 + x562 + x563 + x564 + x565 + x566 + x567 + x661 + x662 + x663 + x664 + x665 + x666 + x667 + x761 + x762 + x763 + x764 + x765 + x766 + x767 - r <= 0
TransConstraint7: x171 + x172 + x173 + x174 + x175 + x176 + x177 + x271 + x272 + x273 + x274 + x275 + x276 + x277 + x371 + x372 + x373 + x374 + x375 + x376 + x377 + x471 + x472 + x473 + x474 + x475 + x476 + x477 + x571 + x572 + x573 + x574 + x575 + x576 + x577 + x671 + x672 + x673 + x674 + x675 + x676 + x677 + x771 + x772 + x773 + x774 + x775 + x776 + x777 - r <= 0
Utilisation11: u111 + u121 + u131 + u141 + u151 + u161 + u171 = 3
Utilisation12: u112 + u122 + u132 + u142 + u152 + u162 + u172 = 3
Utilisation13: u113 + u123 + u133 + u143 + u153 + u163 + u173 = 3
Utilisation14: u114 + u124 + u134 + u144 + u154 + u164 + u174 = 3
Utilisation15: u115 + u125 + u135 + u145 + u155 + u165 + u175 = 3
Utilisation16: u116 + u126 + u136 + u146 + u156 + u166 + u176 = 3
Utilisation17: u117 + u127 + u137 + u147 + u157 + u167 + u177 = 3
Utilisation21: u211 + u221 + u231 + u241 + u251 + u261 + u271 = 3
Utilisation22: u212 + u222 + u232 + u242 + u252 + u262 + u272 = 3
Utilisation23: u213 + u223 + u233 + u243 + u253 + u263 + u273 = 3
Utilisation24: u214 + u224 + u234 + u244 + u254 + u264 + u274 = 3
Utilisation25: u215 + u225 + u235 + u245 + u255 + u265 + u275 = 3
Utilisation26: u216 + u226 + u236 + u246 + u256 + u266 + u276 = 3
Utilisation27: u217 + u227 + u237 + u247 + u257 + u267 + u277 = 3
Utilisation31: u311 + u321 + u331 + u341 + u351 + u361 + u371 = 3
Utilisation32: u312 + u322 + u332 + u342 + u352 + u362 + u372 = 3
Utilisation33: u313 + u323 + u333 + u343 + u353 + u363 + u373 = 3
Utilisation34: u314 + u324 + u334 + u344 + u354 + u364 + u374 = 3
Utilisation35: u315 + u325 + u335 + u345 + u355 + u365 + u375 = 3
Utilisation36: u316 + u326 + u336 + u346 + u356 + u366 + u376 = 3
Utilisation37: u317 + u327 + u337 + u347 + u357 + u367 + u377 = 3
Utilisation41: u411 + u421 + u431 + u441 + u451 + u461 + u471 = 3
Utilisation42: u412 + u422 + u432 + u442 + u452 + u462 + u472 = 3
Utilisation43: u413 + u423 + u433 + u443 + u453 + u463 + u473 = 3
Utilisation44: u414 + u424 + u434 + u444 + u454 + u464 + u474 = 3
Utilisation45: u415 + u425 + u435 + u445 + u455 + u465 + u475 = 3
Utilisation46: u416 + u426 + u436 + u446 + u456 + u466 + u476 = 3
Utilisation47: u417 + u427 + u437 + u447 + u457 + u467 + u477 = 3
Utilisation51: u511 + u521 + u531 + u541 + u551 + u561 + u571 = 3
Utilisation52: u512 + u522 + u532 + u542 + u552 + u562 + u572 = 3
Utilisation53: u513 + u523 + u533 + u543 + u553 + u563 + u573 = 3
Utilisation54: u514 + u524 + u534 + u544 + u554 + u564 + u574 = 3
Utilisation55: u515 + u525 + u535 + u545 + u555 + u565 + u575 = 3
Utilisation56: u516 + u526 + u536 + u546 + u556 + u566 + u576 = 3
Utilisation57: u517 + u527 + u537 + u547 + u557 + u567 + u577 = 3
Utilisation61: u611 + u621 + u631 + u641 + u651 + u661 + u671 = 3
Utilisation62: u612 + u622 + u632 + u642 + u652 + u662 + u672 = 3
Utilisation63: u613 + u623 + u633 + u643 + u653 + u663 + u673 = 3
Utilisation64: u614 + u624 + u634 + u644 + u654 + u664 + u674 = 3
Utilisation65: u615 + u625 + u635 + u645 + u655 + u665 + u675 = 3
Utilisation66: u616 + u626 + u636 + u646 + u656 + u666 + u676 = 3
Utilisation67: u617 + u627 + u637 + u647 + u657 + u667 + u677 = 3
Utilisation71: u711 + u721 + u731 + u741 + u751 + u761 + u771 = 3
Utilisation72: u712 + u722 + u732 + u742 + u752 + u762 + u772 = 3
Utilisation73: u713 + u723 + u733 + u743 + u753 + u763 + u773 = 3
Utilisation74: u714 + u724 + u734 + u744 + u754 + u764 + u774 = 3
Utilisation75: u715 + u725 + u735 + u745 + u755 + u765 + u775 = 3
Utilisation76: u716 + u726 + u736 + u746 + u756 + u766 + u776 = 3
Utilisation77: u717 + u727 + u737 + u747 + u757 + u767 + u777 = 3

Bounds
r >= 0
x111 >= 0
x112 >= 0
x113 >= 0
x114 >= 0
x115 >= 0
x116 >= 0
x117 >= 0
x121 >= 0
x122 >= 0
x123 >= 0
x124 >= 0
x125 >= 0
x126 >= 0
x127 >= 0
x131 >= 0
x132 >= 0
x133 >= 0
x134 >= 0
x135 >= 0
x136 >= 0
x137 >= 0
x141 >= 0
x142 >= 0
x143 >= 0
x144 >= 0
x145 >= 0
x146 >= 0
x147 >= 0
x151 >= 0
x152 >= 0
x153 >= 0
x154 >= 0
x155 >= 0
x156 >= 0
x157 >= 0
x161 >= 0
x162 >= 0
x163 >= 0
x164 >= 0
x165 >= 0
x166 >= 0
x167 >= 0
x171 >= 0
x172 >= 0
x173 >= 0
x174 >= 0
x175 >= 0
x176 >= 0
x177 >= 0
x211 >= 0
x212 >= 0
x213 >= 0
x214 >= 0
x215 >= 0
x216 >= 0
x217 >= 0
x221 >= 0
x222 >= 0
x223 >= 0
x224 >= 0
x225 >= 0
x226 >= 0
x227 >= 0
x231 >= 0
x232 >= 0
x233 >= 0
x234 >= 0
x235 >= 0
x236 >= 0
x237 >= 0
x241 >= 0
x242 >= 0
x243 >= 0
x244 >= 0
x245 >= 0
x246 >= 0
x247 >= 0
x251 >= 0
x252 >= 0
x253 >= 0
x254 >= 0
x255 >= 0
x256 >= 0
x257 >= 0
x261 >= 0
x262 >= 0
x263 >= 0
x264 >= 0
x265 >= 0
x266 >= 0
x267 >= 0
x271 >= 0
x272 >= 0
x273 >= 0
x274 >= 0
x275 >= 0
x276 >= 0
x277 >= 0
x311 >= 0
x312 >= 0
x313 >= 0
x314 >= 0
x315 >= 0
x316 >= 0
x317 >= 0
x321 >= 0
x322 >= 0
x323 >= 0
x324 >= 0
x325 >= 0
x326 >= 0
x327 >= 0
x331 >= 0
x332 >= 0
x333 >= 0
x334 >= 0
x335 >= 0
x336 >= 0
x337 >= 0
x341 >= 0
x342 >= 0
x343 >= 0
x344 >= 0
x345 >= 0
x346 >= 0
x347 >= 0
x351 >= 0
x352 >= 0
x353 >= 0
x354 >= 0
x355 >= 0
x356 >= 0
x357 >= 0
x361 >= 0
x362 >= 0
x363 >= 0
x364 >= 0
x365 >= 0
x366 >= 0
x367 >= 0
x371 >= 0
x372 >= 0
x373 >= 0
x374 >= 0
x375 >= 0
x376 >= 0
x377 >= 0
x411 >= 0
x412 >= 0
x413 >= 0
x414 >= 0
x415 >= 0
x416 >= 0
x417 >= 0
x421 >= 0
x422 >= 0
x423 >= 0
x424 >= 0
x425 >= 0
x426 >= 0
x427 >= 0
x431 >= 0
x432 >= 0
x433 >= 0
x434 >= 0
x435 >= 0
x436 >= 0
x437 >= 0
x441 >= 0
x442 >= 0
x443 >= 0
x444 >= 0
x445 >= 0
x446 >= 0
x447 >= 0
x451 >= 0
x452 >= 0
x453 >= 0
x454 >= 0
x455 >= 0
x456 >= 0
x457 >= 0
x461 >= 0
x462 >= 0
x463 >= 0
x464 >= 0
x465 >= 0
x466 >= 0
x467 >= 0
x471 >= 0
x472 >= 0
x473 >= 0
x474 >= 0
x475 >= 0
x476 >= 0
x477 >= 0
x511 >= 0
x512 >= 0
x513 >= 0
x514 >= 0
x515 >= 0
x516 >= 0
x517 >= 0
x521 >= 0
x522 >= 0
x523 >= 0
x524 >= 0
x525 >= 0
x526 >= 0
x527 >= 0
x531 >= 0
x532 >= 0
x533 >= 0
x534 >= 0
x535 >= 0
x536 >= 0
x537 >= 0
x541 >= 0
x542 >= 0
x543 >= 0
x544 >= 0
x545 >= 0
x546 >= 0
x547 >= 0
x551 >= 0
x552 >= 0
x553 >= 0
x554 >= 0
x555 >= 0
x556 >= 0
x557 >= 0
x561 >= 0
x562 >= 0
x563 >= 0
x564 >= 0
x565 >= 0
x566 >= 0
x567 >= 0
x571 >= 0
x572 >= 0
x573 >= 0
x574 >= 0
x575 >= 0
x576 >= 0
x577 >= 0
x611 >= 0
x612 >= 0
x613 >= 0
x614 >= 0
x615 >= 0
x616 >= 0
x617 >= 0
x621 >= 0
x622 >= 0
x623 >= 0
x624 >= 0
x625 >= 0
x626 >= 0
x627 >= 0
x631 >= 0
x632 >= 0
x633 >= 0
x634 >= 0
x635 >= 0
x636 >= 0
x637 >= 0
x641 >= 0
x642 >= 0
x643 >= 0
x644 >= 0
x645 >= 0
x646 >= 0
x647 >= 0
x651 >= 0
x652 >= 0
x653 >= 0
x654 >= 0
x655 >= 0
x656 >= 0
x657 >= 0
x661 >= 0
x662 >= 0
x663 >= 0
x664 >= 0
x665 >= 0
x666 >= 0
x667 >= 0
x671 >= 0
x672 >= 0
x673 >= 0
x674 >= 0
x675 >= 0
x676 >= 0
x677 >= 0
x711 >= 0
x712 >= 0
x713 >= 0
x714 >= 0
x715 >= 0
x716 >= 0
x717 >= 0
x721 >= 0
x722 >= 0
x723 >= 0
x724 >= 0
x725 >= 0
x726 >= 0
x727 >= 0
x731 >= 0
x732 >= 0
x733 >= 0
x734 >= 0
x735 >= 0
x736 >= 0
x737 >= 0
x741 >= 0
x742 >= 0
x743 >= 0
x744 >= 0
x745 >= 0
x746 >= 0
x747 >= 0
x751 >= 0
x752 >= 0
x753 >= 0
x754 >= 0
x755 >= 0
x756 >= 0
x757 >= 0
x761 >= 0
x762 >= 0
x763 >= 0
x764 >= 0
x765 >= 0
x766 >= 0
x767 >= 0
x771 >= 0
x772 >= 0
x773 >= 0
x774 >= 0
x775 >= 0
x776 >= 0
x777 >= 0
st11 >= 0
st12 >= 0
st13 >= 0
st14 >= 0
st15 >= 0
st16 >= 0
st17 >= 0
st21 >= 0
st22 >= 0
st23 >= 0
st24 >= 0
st25 >= 0
st26 >= 0
st27 >= 0
st31 >= 0
st32 >= 0
st33 >= 0
st34 >= 0
st35 >= 0
st36 >= 0
st37 >= 0
st41 >= 0
st42 >= 0
st43 >= 0
st44 >= 0
st45 >= 0
st46 >= 0
st47 >= 0
st51 >= 0
st52 >= 0
st53 >= 0
st54 >= 0
st55 >= 0
st56 >= 0
st57 >= 0
st61 >= 0
st62 >= 0
st63 >= 0
st64 >= 0
st65 >= 0
st66 >= 0
st67 >= 0
st71 >= 0
st72 >= 0
st73 >= 0
st74 >= 0
st75 >= 0
st76 >= 0
st77 >= 0
td11 >= 0
td12 >= 0
td13 >= 0
td14 >= 0
td15 >= 0
td16 >= 0
td17 >= 0
td21 >= 0
td22 >= 0
td23 >= 0
td24 >= 0
td25 >= 0
td26 >= 0
td27 >= 0
td31 >= 0
td32 >= 0
td33 >= 0
td34 >= 0
td35 >= 0
td36 >= 0
td37 >= 0
td41 >= 0
td42 >= 0
td43 >= 0
td44 >= 0
td45 >= 0
td46 >= 0
td47 >= 0
td51 >= 0
td52 >= 0
td53 >= 0
td54 >= 0
td55 >= 0
td56 >= 0
td57 >= 0
td61 >= 0
td62 >= 0
td63 >= 0
td64 >= 0
td65 >= 0
td66 >= 0
td67 >= 0
td71 >= 0
td72 >= 0
td73 >= 0
td74 >= 0
td75 >= 0
td76 >= 0
td77 >= 0

Binary
u111
u112
u113
u114
u115
u116
u117
u121
u122
u123
u124
u125
u126
u127
u131
u132
u133
u134
u135
u136
u137
u141
u142
u143
u144
u145
u146
u147
u151
u152
u153
u154
u155
u156
u157
u161
u162
u163
u164
u165
u166
u167
u171
u172
u173
u174
u175
u176
u177
u211
u212
u213
u214
u215
u216
u217
u221
u222
u223
u224
u225
u226
u227
u231
u232
u233
u234
u235
u236
u237
u241
u242
u243
u244
u245
u246
u247
u251
u252
u253
u254
u255
u256
u257
u261
u262
u263
u264
u265
u266
u267
u271
u272
u273
u274
u275
u276
u277
u311
u312
u313
u314
u315
u316
u317
u321
u322
u323
u324
u325
u326
u327
u331
u332
u333
u334
u335
u336
u337
u341
u342
u343
u344
u345
u346
u347
u351
u352
u353
u354
u355
u356
u357
u361
u362
u363
u364
u365
u366
u367
u371
u372
u373
u374
u375
u376
u377
u411
u412
u413
u414
u415
u416
u417
u421
u422
u423
u424
u425
u426
u427
u431
u432
u433
u434
u435
u436
u437
u441
u442
u443
u444
u445
u446
u447
u451
u452
u453
u454
u455
u456
u457
u461
u462
u463
u464
u465
u466
u467
u471
u472
u473
u474
u475
u476
u477
u511
u512
u513
u514
u515
u516
u517
u521
u522
u523
u524
u525
u526
u527
u531
u532
u533
u534
u535
u536
u537
u541
u542
u543
u544
u545
u546
u547
u551
u552
u553
u554
u555
u556
u557
u561
u562
u563
u564
u565
u566
u567
u571
u572
u573
u574
u575
u576
u577
u611
u612
u613
u614
u615
u616
u617
u621
u622
u623
u624
u625
u626
u627
u631
u632
u633
u634
u635
u636
u637
u641
u642
u643
u644
u645
u646
u647
u651
u652
u653
u654
u655
u656
u657
u661
u662
u663
u664
u665
u666
u667
u671
u672
u673
u674
u675
u676
u677
u711
u712
u713
u714
u715
u716
u717
u721
u722
u723
u724
u725
u726
u727
u731
u732
u733
u734
u735
u736
u737
u741
u742
u743
u744
u745
u746
u747
u751
u752
u753
u754
u755
u756
u757
u761
u762
u763
u764
u765
u766
u767
u771
u772
u773
u774
u775
u776
u777

End